/*********************************************
 * OPL 12.6.0.0 Data
 * Author: Adrian Rodriguez Bazaga, Pau Rodriguez Esmerats
 * Creation Date: 21/11/2017 at 23:07:29
 *********************************************/

nNurses=124;
maxConsec=2;
maxPresence=7;
maxHours=5;
minHours=1;
demand= [33 22 43 47 22 43 47 23 23 15 3 2 3 5 4 4 4 4 1 3 27 45 19 46  ];
